 C  H 
 1.0000000000000000
    10.0000000000000000    0.0000000000000000    0.0000000000000000
     0.0000000000000000   10.0000000000000000    0.0000000000000000
     0.0000000000000000    0.0000000000000000   10.0000000000000000
 C   H  
   2   6
Cartesian
  4.2439714304172167  5.0000004177753397  5.0000002498516389
  5.7560285695827833  4.9999996090350933  4.9999998157755936
  3.8596621070858652  4.9682501628387099  3.9761366713203676
  3.8596619291891017  5.9025659716477783  5.4844352979623316
  3.8596619437823740  4.1291831399640797  5.5394275869207110
  6.1403378929141361  5.8708168408593755  4.4605722906257190
  6.1403380708108983  4.0974340283522208  4.5155648176162346
  6.1403380562176251  5.0317500461317000  6.0238633286796324
