 C  F  N  O  S 
 1.0000000000000000
    10.0000000000000000    0.0000000000000000    0.0000000000000000
     0.0000000000000000   10.0000000000000000    0.0000000000000000
     0.0000000000000000    0.0000000000000000   10.0000000000000000
 C   F   N   O   S  
   2   6   1   4   2
Cartesian
  5.3798970614155213  6.6970567579772533  3.1051277516443170
  5.3799077025917246  3.4156466935656828  7.3619717440219716
  4.9625019656346261  7.7423542678383797  3.8785197472064525
  6.7450079318089458  6.7440439248121482  3.1090534657247715
  5.0050334273714210  7.0148979111357077  1.8240142679096047
  4.9624855804791022  4.4296514378863794  8.1759857320903944
  5.0050188220545735  2.2576457321616212  7.9954467539618150
  6.7449936522951592  3.4314127024127994  7.4064308849990255
  5.2568757342565728  4.9186363660255958  5.1273918778967360
  3.2551720533692849  3.4492704195809196  5.9030966121455144
  5.2729284346211909  2.3202497627445133  5.0325072520169183
  5.2728586012272505  4.1655894052205937  2.6388462685044130
  3.2549920681910542  5.2948142368023312  3.5089595127940636
  4.7055504861782786  3.5061144191724058  5.6770859554546487
  4.7058366783442391  5.0905307611370736  3.6213584330358706
